10  5
 0 11  1  7  2 12  3 11  4 13  10 175   5
 3  6  0  9  2 10  1  3  4 12  17 174  10
 1 11  0 11  2  9  3  8  4 11  13 178   5
 1  4  0  8  2 13  3  3  4 11  15 174   5
 1 10  0 11  2 10  3  9  4 10   4 184  10
 1  9  0  6  2 14  3  5  4  9   7 177   5
 3  3  1  6  2  9  0  8  4 12   6 182  10
 0 11  3  4  2 11  1  9  4 14  11 177  10
 1 10  0  6  2 14  3  4  4 10   2 176   5
 0 10  3 10  2 10  1 11  4 16   5 176  10
